27 6
10 10 10 10 10 10
1 0 0 0 0 0 0 3 2 3 4
1 0 3 8 0 6 0 2 5 6
1 0 0 10 10 0 0 2 5 7
8 0 0 9 0 0 0 4 5 6 7 8
1 10 10 0 4 0 0 3 9 11 12
6 3 10 5 10 0 0 3 9 11 12
5 7 0 0 0 0 7 3 9 11 12
9 0 0 0 4 10 7 3 9 10 12
1 0 10 9 8 3 8 2 13 15
7 5 7 7 6 0 0 2 14 15
1 10 0 0 6 9 0 2 13 16
1 0 3 9 6 0 2 2 15 16
2 10 0 0 8 0 10 2 17 20
5 6 5 0 4 10 4 3 17 19 20
3 0 10 9 6 6 0 2 19 20
1 0 0 0 8 7 10 3 17 18 19
1 0 3 1 3 4 8 2 22 23
5 0 0 10 10 3 5 2 21 24
10 0 0 9 0 0 0 1 24
1 7 10 3 0 0 0 3 21 22 23
1 0 0 0 0 8 0 1 25
6 0 0 5 10 0 10 1 25
3 0 10 5 0 0 0 1 26
7 6 0 1 0 0 10 2 25 26
1 0 0 0 0 0 0 1 27
9 10 5 7 10 6 4 1 27
0 0 0 0 0 0 0 0
